(declare-datatypes (T1 T2 T3 T4 T5)
 ((Recv (mk-recv (match T1) (ep T2) (var T3) (event T4) (nearestwait T5)))))
(declare-datatypes (T1 T2 T3 T4)
((Send (mk-send (match T1) (ep T2) (value T3) (event T4)))))

(define-fun HB ((a Int) (b Int)) Bool
  (if(< a b)
 true
 false))

(define-fun MATCH ((r (Recv Int Int Int Int Int)) (s (Send Int Int Int Int))) Bool
(if(and (= (ep r) (ep s)) (= (var r) (value s))
(HB (event s) (nearestwait r)) (= (match r) (event s))
(= (match s) (event r)))
true
false
)
)

(declare-const TB_comm Int)
(declare-const T0_1 Int)
(declare-const T0_2 Int)
(declare-const T0_3 Int)
(declare-const rB_0_0 Int)
(declare-const T0_4 Int)
(declare-const T0_5 Int)
(declare-const T0_6 Int)
(declare-const T0_7 Int)
(declare-const rB_0_1 Int)
(declare-const T0_8 Int)
(declare-const T0_9 Int)
(declare-const T0_10 Int)
(declare-const T0_11 Int)
(declare-const rB_0_2 Int)
(declare-const T0_12 Int)
(declare-const T0_13 Int)
(declare-const T0_14 Int)
(declare-const T0_15 Int)
(declare-const rB_0_3 Int)
(declare-const T0_16 Int)
(declare-const T0_17 Int)
(declare-const T0_18 Int)
(declare-const T0_19 Int)
(declare-const rB_0_4 Int)
(declare-const T0_20 Int)
(declare-const T0_21 Int)
(declare-const T0_22 Int)
(declare-const T1_1 Int)
(declare-const rB_1_0 Int)
(declare-const T1_2 Int)
(declare-const T1_3 Int)
(declare-const T1_4 Int)
(declare-const T1_5 Int)
(declare-const rB_1_1 Int)
(declare-const T1_6 Int)
(declare-const T1_7 Int)
(declare-const T1_8 Int)
(declare-const T1_9 Int)
(declare-const rB_1_2 Int)
(declare-const T1_10 Int)
(declare-const T1_11 Int)
(declare-const T1_12 Int)
(declare-const T1_13 Int)
(declare-const rB_1_3 Int)
(declare-const T1_14 Int)
(declare-const T1_15 Int)
(declare-const T1_16 Int)
(declare-const T1_17 Int)
(declare-const rB_1_4 Int)
(declare-const T1_18 Int)
(declare-const T1_19 Int)
(declare-const T1_20 Int)
(declare-const T1_21 Int)
(declare-const rB_1_5 Int)
(declare-const T1_22 Int)

(declare-const sendT0_1 (Send Int Int Int Int))
(assert (and (= (ep sendT0_1) 1) (= (event sendT0_1) T0_1) (= (value sendT0_1) 1)))
(declare-const recvT0_3 (Recv Int Int Int Int Int))
(assert (and (= (ep recvT0_3) 0) (= (event recvT0_3) T0_3) (= (var recvT0_3) rB_0_0)))
(assert (= (nearestwait recvT0_3) T0_4))
(declare-const sendT0_5 (Send Int Int Int Int))
(assert (and (= (ep sendT0_5) 1) (= (event sendT0_5) T0_5) (= (value sendT0_5) 3)))
(declare-const recvT0_7 (Recv Int Int Int Int Int))
(assert (and (= (ep recvT0_7) 0) (= (event recvT0_7) T0_7) (= (var recvT0_7) rB_0_1)))
(assert (= (nearestwait recvT0_7) T0_8))
(declare-const sendT0_9 (Send Int Int Int Int))
(assert (and (= (ep sendT0_9) 1) (= (event sendT0_9) T0_9) (= (value sendT0_9) -4)))
(declare-const recvT0_11 (Recv Int Int Int Int Int))
(assert (and (= (ep recvT0_11) 0) (= (event recvT0_11) T0_11) (= (var recvT0_11) rB_0_2)))
(assert (= (nearestwait recvT0_11) T0_12))
(declare-const sendT0_13 (Send Int Int Int Int))
(assert (and (= (ep sendT0_13) 1) (= (event sendT0_13) T0_13) (= (value sendT0_13) 2)))
(declare-const recvT0_15 (Recv Int Int Int Int Int))
(assert (and (= (ep recvT0_15) 0) (= (event recvT0_15) T0_15) (= (var recvT0_15) rB_0_3)))
(assert (= (nearestwait recvT0_15) T0_16))
(declare-const sendT0_17 (Send Int Int Int Int))
(assert (and (= (ep sendT0_17) 1) (= (event sendT0_17) T0_17) (= (value sendT0_17) -1)))
(declare-const recvT0_19 (Recv Int Int Int Int Int))
(assert (and (= (ep recvT0_19) 0) (= (event recvT0_19) T0_19) (= (var recvT0_19) rB_0_4)))
(assert (= (nearestwait recvT0_19) T0_20))
(declare-const sendT0_21 (Send Int Int Int Int))
(assert (and (= (ep sendT0_21) 1) (= (event sendT0_21) T0_21) (= (value sendT0_21) -1)))
(declare-const recvT1_1 (Recv Int Int Int Int Int))
(assert (and (= (ep recvT1_1) 1) (= (event recvT1_1) T1_1) (= (var recvT1_1) rB_1_0)))
(assert (= (nearestwait recvT1_1) T1_2))
(declare-const sendT1_3 (Send Int Int Int Int))
(assert (and (= (ep sendT1_3) 0) (= (event sendT1_3) T1_3) (= (value sendT1_3) 5)))
(declare-const recvT1_5 (Recv Int Int Int Int Int))
(assert (and (= (ep recvT1_5) 1) (= (event recvT1_5) T1_5) (= (var recvT1_5) rB_1_1)))
(assert (= (nearestwait recvT1_5) T1_6))
(declare-const sendT1_7 (Send Int Int Int Int))
(assert (and (= (ep sendT1_7) 0) (= (event sendT1_7) T1_7) (= (value sendT1_7) 48)))
(declare-const recvT1_9 (Recv Int Int Int Int Int))
(assert (and (= (ep recvT1_9) 1) (= (event recvT1_9) T1_9) (= (var recvT1_9) rB_1_2)))
(assert (= (nearestwait recvT1_9) T1_10))
(declare-const sendT1_11 (Send Int Int Int Int))
(assert (and (= (ep sendT1_11) 0) (= (event sendT1_11) T1_11) (= (value sendT1_11) 30)))
(declare-const recvT1_13 (Recv Int Int Int Int Int))
(assert (and (= (ep recvT1_13) 1) (= (event recvT1_13) T1_13) (= (var recvT1_13) rB_1_3)))
(assert (= (nearestwait recvT1_13) T1_14))
(declare-const sendT1_15 (Send Int Int Int Int))
(assert (and (= (ep sendT1_15) 0) (= (event sendT1_15) T1_15) (= (value sendT1_15) -1)))
(declare-const recvT1_17 (Recv Int Int Int Int Int))
(assert (and (= (ep recvT1_17) 1) (= (event recvT1_17) T1_17) (= (var recvT1_17) rB_1_4)))
(assert (= (nearestwait recvT1_17) T1_18))
(declare-const sendT1_19 (Send Int Int Int Int))
(assert (and (= (ep sendT1_19) 0) (= (event sendT1_19) T1_19) (= (value sendT1_19) -7)))
(declare-const recvT1_21 (Recv Int Int Int Int Int))
(assert (and (= (ep recvT1_21) 1) (= (event recvT1_21) T1_21) (= (var recvT1_21) rB_1_5)))
(assert (= (nearestwait recvT1_21) T1_22))

(assert (and
(HB TB_comm T0_1) (HB TB_comm T0_2) (HB TB_comm T0_3) (HB TB_comm T0_4) (HB T0_3 T0_4) (HB TB_comm T0_5) (HB T0_1 T0_5) (HB T0_4 T0_5) (HB TB_comm T0_6) (HB TB_comm T0_7) (HB T0_3 T0_7) (HB TB_comm T0_8) (HB T0_7 T0_8) (HB TB_comm T0_9) (HB T0_5 T0_9) (HB T0_8 T0_9) (HB TB_comm T0_10) (HB TB_comm T0_11) (HB T0_7 T0_11) (HB TB_comm T0_12) (HB T0_11 T0_12) (HB TB_comm T0_13) (HB T0_9 T0_13) (HB T0_12 T0_13) (HB TB_comm T0_14) (HB TB_comm T0_15) (HB T0_11 T0_15) (HB TB_comm T0_16) (HB T0_15 T0_16) (HB TB_comm T0_17) (HB T0_13 T0_17) (HB T0_16 T0_17) (HB TB_comm T0_18) (HB TB_comm T0_19) (HB T0_15 T0_19) (HB TB_comm T0_20) (HB T0_19 T0_20) (HB TB_comm T0_21) (HB T0_17 T0_21) (HB T0_20 T0_21) (HB TB_comm T0_22) (HB TB_comm T1_1) (HB TB_comm T1_2) (HB T1_1 T1_2) (HB TB_comm T1_3) (HB T1_2 T1_3) (HB TB_comm T1_4) (HB TB_comm T1_5) (HB T1_1 T1_5) (HB TB_comm T1_6) (HB T1_5 T1_6) (HB TB_comm T1_7) (HB T1_3 T1_7) (HB T1_6 T1_7) (HB TB_comm T1_8) (HB TB_comm T1_9) (HB T1_5 T1_9) (HB TB_comm T1_10) (HB T1_9 T1_10) (HB TB_comm T1_11) (HB T1_7 T1_11) (HB T1_10 T1_11) (HB TB_comm T1_12) (HB TB_comm T1_13) (HB T1_9 T1_13) (HB TB_comm T1_14) (HB T1_13 T1_14) (HB TB_comm T1_15) (HB T1_11 T1_15) (HB T1_14 T1_15) (HB TB_comm T1_16) (HB TB_comm T1_17) (HB T1_13 T1_17) (HB TB_comm T1_18) (HB T1_17 T1_18) (HB TB_comm T1_19) (HB T1_15 T1_19) (HB T1_18 T1_19) (HB TB_comm T1_20) (HB TB_comm T1_21) (HB T1_17 T1_21) (HB TB_comm T1_22) (HB T1_21 T1_22) ))


(assert (and
(or (MATCH recvT1_21 sendT0_21) )
(or (MATCH recvT1_17 sendT0_17) )
(or (MATCH recvT1_13 sendT0_13) )
(or (MATCH recvT0_19 sendT1_19) )
(or (MATCH recvT0_7 sendT1_7) )
(or (MATCH recvT0_15 sendT1_15) )
(or (MATCH recvT1_9 sendT0_9) )
(or (MATCH recvT0_3 sendT1_3) )
(or (MATCH recvT0_11 sendT1_11) )
(or (MATCH recvT1_5 sendT0_5) )
(or (MATCH recvT1_1 sendT0_1) )
))


(check-sat)
